(set-logic QF_S)
(set-option :produce-models true)

(declare-fun s3098 () String)
(declare-fun s1558 () String)
(declare-fun s2310 () String)
(declare-fun s2330 () String)
(declare-fun s2783 () String)
(declare-fun s138 () String)
(declare-fun s1021 () String)
(declare-fun s4344 () String)
(declare-fun s538 () String)
(declare-fun s3215 () String)
(declare-fun s2786 () String)
(declare-fun s118 () String)
(declare-fun s3309 () String)
(declare-fun s2837 () String)
(declare-fun s806 () String)
(declare-fun s439 () String)
(declare-fun s1249 () String)
(declare-fun s659 () String)
(declare-fun s1464 () String)
(declare-fun s2492 () String)
(declare-fun s2722 () String)
(declare-fun s1423 () String)
(declare-fun s2691 () String)
(declare-fun s2602 () String)
(declare-fun s473 () String)
(declare-fun s1182 () String)
(declare-fun s2668 () String)
(declare-fun s3377 () String)
(declare-fun s1291 () String)
(declare-fun s2439 () String)
(declare-fun s2549 () String)
(declare-fun s2671 () String)
(declare-fun s3056 () String)
(declare-fun s783 () String)
(declare-fun s3528 () String)
(declare-fun s2989 () String)
(declare-fun s2903 () String)
(declare-fun s898 () String)
(declare-fun s2307 () String)
(declare-fun s605 () String)
(declare-fun s981 () String)
(declare-fun s541 () String)
(declare-fun s3342 () String)
(declare-fun s662 () String)
(declare-fun s1387 () String)
(declare-fun s442 () String)
(declare-fun s2605 () String)
(declare-fun s3471 () String)
(declare-fun s561 () String)
(declare-fun s2840 () String)
(declare-fun s2382 () String)
(declare-fun s720 () String)
(declare-fun s837 () String)
(declare-fun s840 () String)
(declare-fun s3504 () String)
(declare-fun s717 () String)
(declare-fun s2725 () String)
(declare-fun s2405 () String)
(declare-fun s2385 () String)
(declare-fun s2495 () String)
(declare-fun s2806 () String)
(declare-fun s786 () String)
(declare-fun s2625 () String)
(declare-fun s3173 () String)
(declare-fun s2515 () String)
(declare-fun s921 () String)
(declare-fun s2436 () String)
(declare-fun s2546 () String)
(declare-fun s901 () String)
(declare-fun s608 () String)
(declare-fun s3563 () String)
(declare-fun s4422 () String)
(declare-fun s2936 () String)
(declare-fun s740 () String)
(declare-fun s4569 () String)
(declare-fun s1085 () String)
(declare-fun s628 () String)

(assert (= s541 s538 ))
(assert (not (= s118 s608 )))
(assert (not (= s2936 s138 )))
(assert (not (= s138 s921 )))
(assert (not (= s2989 s118 )))
(assert (not (= s118 s2310 )))
(assert (= s3471 s138 ))
(assert (not (= s3309 s118 )))
(assert (not (= s118 s2786 )))
(assert (= s901 s898 ))
(assert (= s662 s659 ))
(assert (not (= s138 s2903 )))
(assert (= s1387 s138 ))
(assert (not (= s1291 s118 )))
(assert (not (= s118 s2495 )))
(assert (= s3173 s118 ))
(assert (not (= s118 s901 )))
(assert (not (= s3098 s118 )))
(assert (not (= s138 s4344 )))
(assert (not (= s3377 s118 )))
(assert (not (= s118 s720 )))
(assert (not (= s1021 s138 )))
(assert (not (= s3215 s118 )))
(assert (not (= s118 s2725 )))
(assert (not (= s1085 s138 )))
(assert (= s2310 s2307 ))
(assert (= s442 s439 ))
(assert (not (= s138 s628 )))
(assert (= s2725 s2722 ))
(assert (not (= s138 s2405 )))
(assert (not (= s2936 s118 )))
(assert (not (= s118 s2840 )))
(assert (not (= s1464 s138 )))
(assert (not (= s3215 s138 )))
(assert (not (= s138 s473 )))
(assert (not (= s138 s806 )))
(assert (not (= s3504 s118 )))
(assert (not (= s138 s981 )))
(assert (not (= s138 s2515 )))
(assert (not (= s138 s4422 )))
(assert (not (= s3563 s118 )))
(assert (not (= s1558 s138 )))
(assert (not (= s138 s2625 )))
(assert (= s2786 s2783 ))
(assert (= s118 s662 ))
(assert (= s2840 s2837 ))
(assert (not (= s3098 s138 )))
(assert (not (= s1182 s118 )))
(assert (= s840 s837 ))
(assert (not (= s1464 s118 )))
(assert (not (= s3377 s138 )))
(assert (not (= s1291 s138 )))
(assert (not (= s118 s786 )))
(assert (not (= s138 s2330 )))
(assert (not (= s118 s442 )))
(assert (not (= s118 s840 )))
(assert (not (= s3528 s118 )))
(assert (not (= s138 s2691 )))
(assert (= s2385 s2382 ))
(assert (not (= s2989 s138 )))
(assert (not (= s138 s4569 )))
(assert (= s118 s2439 ))
(assert (= s2671 s2668 ))
(assert (= s3309 s138 ))
(assert (= s118 "(" ))
(assert (= s2439 s2436 ))
(assert (not (= s118 s2385 )))
(assert (not (= s3563 s138 )))
(assert (= s720 s717 ))
(assert (not (= s1558 s118 )))
(assert (= s1249 s118 ))
(assert (= s608 s605 ))
(assert (not (= s3342 s118 )))
(assert (not (= s138 s740 )))
(assert (= s2605 s2602 ))
(assert (not (= s3471 s118 )))
(assert (not (= s138 s2806 )))
(assert (not (= s1021 s118 )))
(assert (not (= s1085 s118 )))
(assert (not (= s1423 s118 )))
(assert (= s118 s2549 ))
(assert (= s2549 s2546 ))
(assert (not (= s1182 s138 )))
(assert (not (= s118 s541 )))
(assert (not (= s118 s2605 )))
(assert (= s786 s783 ))
(assert (not (= s118 s2671 )))
(assert (= s138 ")" ))
(assert (not (= s138 s561 )))
(assert (not (= s1387 s118 )))
(assert (= s3056 s118 ))
(assert (= s2495 s2492 ))


(check-sat)
(get-model)
